ENCUT = 400.000000
GGA = PE
IBRION = -1
KPAR = 8
NCORE = 8
