ENCUT = 800.000000
SIGMA = 0.050000
EDIFF = 1.00e-06
EDIFFG = -2.00e-02
GGA = PE
PREC = Accurate
IBRION = 2
ISIF = 3
ISMEAR = 0
NSW = 100
LCHARG = .FALSE.
LWAVE = .FALSE.
