ENCUT = 520.000000
SIGMA = 0.050000
EDIFF = 1.00e-06
EDIFFG = -1.00e-02
GGA = PE
PREC = Accurate
IBRION = 2
ISIF = 3
ISMEAR = 0
KPAR = 8
NSW = 100
NCORE = 8
LCHARG = .TRUE.
LWAVE = .TRUE.
LREAL = .FALSE.
