Ta Cu N 
 1.0000000000000000
     3.1533981999999998    0.0000000000000000    0.0000000000000000
    -1.5766990999999992    2.7309229494481220    0.0000000000000000
     0.0000000000000000    0.0000000000000000   17.5445807299999998
 Ta  Cu  N  
   3   3   6
Cartesian
  0.0000000000000000  0.0000000000000000  8.7722903649999999
  1.5766990999999999  0.9103076498160406 14.6204839416666648
  0.0000000000000004  1.8206152996320812  2.9240967883333306
  0.0000000000000000  0.0000000000000000  0.0000000000000000
  1.5766990999999999  0.9103076498160406  5.8481935766666666
  0.0000000000000004  1.8206152996320812 11.6963871533333332
  0.0000000000000000  0.0000000000000000  1.8587606054398500
  0.0000000000000000  0.0000000000000000 15.6858201245601503
  1.5766990999999999  0.9103076498160406  7.7069541821065162
  1.5766990999999999  0.9103076498160406  3.9894329712268162
  0.0000000000000004  1.8206152996320812 13.5551477587731810
  0.0000000000000004  1.8206152996320812  9.8376265478934837
