K-Points
 30
line mode
reciprocal
    0.0000000000     0.0000000000     0.0000000000 1    GAMMA
    0.5000000000     0.5000000000     0.5000000000 1    T 


    0.5000000000     0.5000000000     0.5000000000 1    T 
    0.8115170685     0.1884829315     0.5000000000 1    H_2


    0.5000000000    -0.1884829315     0.1884829315 1    H_0
    0.5000000000     0.0000000000     0.0000000000 1    L 


    0.5000000000     0.0000000000     0.0000000000 1    L 
    0.0000000000     0.0000000000     0.0000000000 1    GAMMA


    0.0000000000     0.0000000000     0.0000000000 1    GAMMA
    0.3442414658    -0.3442414658     0.0000000000 1    S_0


    0.6557585342     0.0000000000     0.3442414658 1    S_2
    0.5000000000     0.0000000000     0.5000000000 1    F 


    0.5000000000     0.0000000000     0.5000000000 1    F 
    0.0000000000     0.0000000000     0.0000000000 1    GAMMA

