SYSTEM = TaCuN2 DOS

ICHARG = 11
LORBIT = 11
NEDOS = 3001

ENCUT = 520
PREC = Accurate
LREAL = .FALSE.

ISMEAR = -5

IBRION = -1
NSW = 0

LWAVE = .FALSE.
LCHARG = .FALSE.

NELM = 200
