Automatic dense mesh for DOS
0
Gamma
15 15 3
0 0 0
