Ta Cu N                                 
   1.00000000000000     
     3.1511120193477713   -0.0000000000000000   -0.0000000000000000
    -1.5755560096738850    2.7289430589256511    0.0000000000000000
     0.0000000000000000   -0.0000000000000000   17.5725851712148966
   Ta   Cu   N 
     3     3     6
Direct
     0.0000000000000000    0.0000000000000000    0.5000000000000000
     0.6666666666666643    0.3333333333333357    0.8333333333333357
     0.3333333333333357    0.6666666666666643    0.1666666666666643
     0.0000000000000000    0.0000000000000000    0.0000000000000000
     0.6666666666666643    0.3333333333333357    0.3333333333333357
     0.3333333333333357    0.6666666666666643    0.6666666666666643
     0.0000000000000000    0.0000000000000000    0.1059752733132192
     0.0000000000000000    1.0000000000000000    0.8940247266867809
     0.6666666666666643    0.3333333333333357    0.4393086066465549
     0.6666666666666643    0.3333333333333357    0.2273580600201094
     0.3333333333333357    0.6666666666666643    0.7726419399798905
     0.3333333333333357    0.6666666666666643    0.5606913933534452
 
  0.00000000E+00  0.00000000E+00  0.00000000E+00
  0.00000000E+00  0.00000000E+00  0.00000000E+00
  0.00000000E+00  0.00000000E+00  0.00000000E+00
  0.00000000E+00  0.00000000E+00  0.00000000E+00
  0.00000000E+00  0.00000000E+00  0.00000000E+00
  0.00000000E+00  0.00000000E+00  0.00000000E+00
  0.00000000E+00  0.00000000E+00  0.00000000E+00
  0.00000000E+00  0.00000000E+00  0.00000000E+00
  0.00000000E+00  0.00000000E+00  0.00000000E+00
  0.00000000E+00  0.00000000E+00  0.00000000E+00
  0.00000000E+00  0.00000000E+00  0.00000000E+00
  0.00000000E+00  0.00000000E+00  0.00000000E+00
