System = DOS CuTaN2

ENCUT = 240

ISMEAR = -5
LORBIT = 11
