Ta3 Cu3 N6
1.0
   1.5774520284856921   -2.7322270598398060    0.0000000000000000
   1.5774520284856921    2.7322270598398060    0.0000000000000000
   0.0000000000000000    0.0000000000000000   15.1036168474491248
Ta Cu N
3 3 6
direct
   0.3333333333333330    0.6666666666666661    0.1666666666666660 Ta5+
   0.9999999999999991    0.9999999999999991    0.5000000000000000 Ta5+
   0.6666666666666661    0.3333333333333330    0.8333333333333330 Ta5+
   0.0000000000000000    0.0000000000000000    0.0000000000000000 Cu+
   0.6666666666666661    0.3333333333333330    0.3333333333333330 Cu+
   0.3333333333333330    0.6666666666666661    0.6666666666666661 Cu+
   0.0000000000000000    0.0000000000000000    0.2382449999999990 N3-
   0.6666666666666661    0.3333333333333330    0.0950883333333330 N3-
   0.6666666666666661    0.3333333333333330    0.5715783333333331 N3-
   0.3333333333333330    0.6666666666666661    0.4284216666666660 N3-
   0.3333333333333330    0.6666666666666661    0.9049116666666661 N3-
   0.0000000000000000    0.0000000000000000    0.7617550000000000 N3-
